Traveling Salesman Problem/TSP_generados/Aleatorio1621103446_14.tsp
NAME: Aleatorio1621103446_14.tsp
COMMENT: Randomly generated scenario
TYPE: TSP
DIMENSION: 14
EDGE_WEIGHT_TYPE: ATT
NODE_COORD_SECTION
1 17.29 14.21
2 10.83 45.91
3 16.36 21.78
4 43.91 49.1
5 22.26 24.35
6 4.31 33.3
7 17.5 6.09
8 33.51 32.36
9 36.61 47.0
10 3.09 25.11
11 24.68 2.68
12 45.69 0.86
13 23.71 16.66
14 5.98 12.62
