Traveling Salesman Problem/TSP_generados/Aleatorio1621103446_14.opt.tour
NAME: Aleatorio1621103446_14.opt.tour
COMMENT: Optimal solution for Aleatorio1621103446_14 (192.49592225425263)
TYPE: TOUR
DIMENSION: 14
TOUR_SECTION
1 3 5 8 4 9 2 6 10 14 7 11 12 13
-1
EOF
